certificates/rado_a14_c242_N40.drat
17 -37 -39 0
-17 -38 -40 0
-38 -39 -40 0
-19 37 -39 -40 0
37 -39 -40 0
d -19 37 -39 -40 0
19 36 -17 38 0
-39 -40 0
d -38 -39 -40 0
-19 -37 -40 0
19 -40 0
-40 0
17 38 -19 0
38 -19 39 0
15 -19 37 39 0
-19 37 39 0
d 15 -19 37 39 0
37 39 0
d -19 37 39 0
19 39 0
39 0
-19 0
16 0
-34 0
-21 0
10 0
17 0
-28 0
-13 0
-35 0
-12 0
-20 0
-6 0
-14 0
18 0
4 0
37 0
11 0
36 0
2 0
30 0
38 0
-8 0
-27 0
-29 0
0
